\ENCODING=ISO-8859-1
\Problem name: ilog.cplex

Minimize
 obj: x1
Subject To
 c1: x1 >= 0
 c2: x1 + 8 x5 + 8 x26 + 8 x48 >= 8
 c2: x1 + 8 x5 + 8 x27 + 8 x48 >= 8
 c2: x1 + 8 x9 + 8 x30 >= 8
 c2: x1 + 8 x9 + 8 x31 >= 8
 c2: x1 + 8 x6 + 8 x27 + 8 x48 >= 8
 c2: x1 + 8 x6 + 8 x28 >= 8
 c2: x1 + 8 x10 + 8 x31 >= 8
 c2: x1 + 8 x10 + 8 x32 >= 8
 c2: x1 + 8 x14 + 8 x36 >= 8
 c2: x1 + 8 x18 + 8 x40 >= 8
 c2: x1 + 8 x22 + 8 x44 >= 8
 c2: x1 + 8 x26 + 8 x48 >= 8
 c2: x1 + 8 x30 >= 8
 c2: x1 + 8 x7 + 8 x26 + 8 x48 >= 8
 c2: x1 + 8 x7 + 8 x28 >= 8
 c2: x1 + 8 x11 + 8 x30 >= 8
 c2: x1 + 8 x11 + 8 x32 >= 8
 c2: x1 + 8 x15 + 8 x36 >= 8
 c2: x1 + 8 x19 + 8 x40 >= 8
 c2: x1 + 8 x23 + 8 x44 >= 8
 c2: x1 + 8 x27 + 8 x48 >= 8
 c2: x1 + 8 x31 >= 8
 c2: x1 + 8 x8 >= 8
 c2: x1 + 8 x12 >= 8
 c2: x1 + 8 x16 >= 8
 c2: x1 + 8 x20 >= 8
 c2: x1 + 8 x24 >= 8
 c2: x1 + 8 x28 >= 8
 c2: x1 + 8 x32 >= 8
 c2: x1 + 8 x36 >= 8
 c2: x1 + 8 x40 >= 8
 c2: x1 + 8 x44 >= 8
 c2: x1 + 8 x48 >= 8
 c2: x1 >= 8
 c3: x1 <= 0
 c3: x2 <= 0
 c3: x3 <= 0
 c3: x4 <= 0
 c3: x5 <= 0
 c3: x6 <= 1
 c3: x7 <= 0
 c3: x8 <= 0
 c3: x9 <= 0
 c3: x10 <= 1
 c3: x11 <= 0
 c3: x12 <= 0
 c3: x13 <= 1
 c3: x14 <= 1
 c3: x15 <= 0
 c3: x16 <= 0
 c3: x17 <= 1
 c3: x18 <= 1
 c3: x19 <= 0
 c3: x20 <= 0
 c3: x21 <= 1
 c3: x22 <= 1
 c3: x23 <= 1
 c3: x24 <= 1
 c3: x25 <= 1
 c3: x26 <= 1
 c3: x27 <= 1
 c3: x28 <= 1
 c3: x29 <= 1
 c3: x30 <= 0
 c3: x31 <= 1
 c3: x32 <= 1
 c3: x33 <= 1
 c3: x34 <= 0
 c3: x35 <= 1
 c3: x36 <= 1
 c3: x37 <= 0
 c3: x38 <= 0
 c3: x39 <= 1
 c3: x40 <= 1
 c3: x41 <= 0
 c3: x42 <= 0
 c3: x43 <= 1
 c3: x44 <= 1
 c3: x45 <= 0
 c3: x46 <= 0
 c3: x47 <= 0
 c3: x48 <= 0
 c4: x1 + x2 + x3 + x4 <= 1
 c4: x5 + x6 + x7 + x8 <= 1
 c4: x9 + x10 + x11 + x12 <= 1
 c4: x13 + x14 + x15 + x16 <= 1
 c4: x17 + x18 + x19 + x20 <= 1
 c4: x21 + x22 + x23 + x24 <= 1
 c4: x25 + x26 + x27 + x28 <= 1
 c4: x29 + x30 + x31 + x32 <= 1
 c4: x33 + x34 + x35 + x36 <= 1
 c4: x37 + x38 + x39 + x40 <= 1
 c4: x41 + x42 + x43 + x44 <= 1
 c4: x45 + x46 + x47 + x48 <= 1
 c5: 3 x1 + 3 x2 + 3 x3 + 3 x4 + 3 x5 + 3 x6 + 3 x7 + 3 x8 + 3 x9 + 3 x10
     + 3 x11 + 3 x12 + 3 x13 + 3 x14 + 3 x15 + 3 x16 + 3 x17 + 3 x18 + 3 x19
     + 3 x20 + 3 x21 + 3 x22 + 3 x23 + 3 x24 + 3 x25 + 3 x26 + 3 x27 + 3 x28
     + 3 x29 + 3 x30 + 3 x31 + 3 x32 + 3 x33 + 3 x34 + 3 x35 + 3 x36 + 3 x37
     + 3 x38 + 3 x39 + 3 x40 + 3 x41 + 3 x42 + 3 x43 + 3 x44 + 3 x45 + 3 x46
     + 3 x47 + 3 x48 <= 30
Bounds
 0 <= x1 <= 1
 0 <= x2 <= 1
 0 <= x3 <= 1
 0 <= x4 <= 1
 0 <= x5 <= 1
 0 <= x6 <= 1
 0 <= x7 <= 1
 0 <= x8 <= 1
 0 <= x9 <= 1
 0 <= x10 <= 1
 0 <= x11 <= 1
 0 <= x12 <= 1
 0 <= x13 <= 1
 0 <= x14 <= 1
 0 <= x15 <= 1
 0 <= x16 <= 1
 0 <= x17 <= 1
 0 <= x18 <= 1
 0 <= x19 <= 1
 0 <= x20 <= 1
 0 <= x21 <= 1
 0 <= x22 <= 1
 0 <= x23 <= 1
 0 <= x24 <= 1
 0 <= x25 <= 1
 0 <= x26 <= 1
 0 <= x27 <= 1
 0 <= x28 <= 1
 0 <= x29 <= 1
 0 <= x30 <= 1
 0 <= x31 <= 1
 0 <= x32 <= 1
 0 <= x33 <= 1
 0 <= x34 <= 1
 0 <= x35 <= 1
 0 <= x36 <= 1
 0 <= x37 <= 1
 0 <= x38 <= 1
 0 <= x39 <= 1
 0 <= x40 <= 1
 0 <= x41 <= 1
 0 <= x42 <= 1
 0 <= x43 <= 1
 0 <= x44 <= 1
 0 <= x45 <= 1
 0 <= x46 <= 1
 0 <= x47 <= 1
 0 <= x48 <= 1
End
